(set-logic QF_BV)
(declare-fun _substvar_2538_ () Bool)
(declare-fun _substvar_1278_ () (_ BitVec 11))
(declare-fun _substvar_846_ () (_ BitVec 11))
(declare-fun _substvar_1463_ () (_ BitVec 11))
(declare-fun _substvar_1433_ () (_ BitVec 11))
(declare-fun _substvar_2640_ () (_ BitVec 11))
(define-fun mask1 ((x (_ BitVec 11))) (_ BitVec 11) (_ bv1792 11))
(define-fun shlok ((x (_ BitVec 11)) (y (_ BitVec 11))) Bool (= (bvand x (mask1 (_ bv0 11))) (_ bv0 11)))
(assert (or (and true true (= _substvar_846_ (_ bv0 11))) false false false false false false (and true true true (= _substvar_846_ (bvsub (_ bv19 11) (_ bv15 11)))) false false false false false false false false false false false false false false false false false false false false false false false false false false false false false false false false false false false false false false false false false false false false false false false false false false false false false false false false false false false (shlok _substvar_1278_ (_ bv0 11)) false false false false false false false false false false false false false (and true (shlok _substvar_1433_ (_ bv0 11)) true (= _substvar_846_ (bvsub (_ bv165 11) _substvar_1433_))) false false false false false false false false false false false false false (and true true (bvugt (_ bv133 11) _substvar_1433_) (= _substvar_846_ (_ bv0 11))) false false false false false false false false false false false false false false false false false false false false false false false false false false false false))
(assert (or false false false false false false false false false false false false false false false false false false false false false false false false false false false false false false false false false false false false false (and true true true (= _substvar_2640_ (_ bv0 11))) false (and true true true (= _substvar_2640_ (bvsub (_ bv165 11) (_ bv19 11)))) false false false false false false false false false false false false false false false (and true true (= _substvar_2640_ (bvadd (_ bv37 11) (_ bv1 11)))) false false false false false false false false false false false false false false false false false false false false false false false false false false false false false false false false false false false false false false false false (and true true true (= _substvar_2640_ (bvsub (_ bv165 11) _substvar_846_))) false false false false false false false false false (and true (shlok _substvar_1433_ (_ bv0 11)) true (= _substvar_2640_ (bvadd (_ bv133 11) _substvar_1433_))) false false false false false false false false false false false false false false false false false false false false false false false false false false false false false false false false false false false false false false false false false false false false false false))
(assert (or false false false false false false false false false false false false false false false false false false false false false (and true true _substvar_2538_ (= _substvar_1463_ (_ bv0 11))) false false false false false false false false false false false false false false false false false false false false false false false false false false false false false false false false false false false false false false false false false false false false false false false false false false false false false false false false false false false false false false false false false false false false false false false false false false false false false false false false false false false false false false false false false false false false false false false false false false false false false false false false false false false false false false false false false false false false false false false false false false false false false false false false false false false false (and (shlok _substvar_1278_ (_ bv0 11)) true (bvugt _substvar_1278_ _substvar_1433_) (= _substvar_1463_ (bvsub _substvar_1278_ _substvar_1433_))) false false false false (and (shlok _substvar_1433_ (_ bv0 11)) true (bvugt _substvar_1433_ _substvar_2640_) (= _substvar_1463_ (bvsub _substvar_1433_ _substvar_2640_))) false false false false false false false false false false false false false false false false false false false (and true true true (= _substvar_1463_ (_ bv0 11))) false false false false false))
(assert (or false (= (_ bv871 11) _substvar_846_) (= (_ bv871 11) _substvar_2640_) (= (_ bv871 11) _substvar_1463_)))
(assert (or (= (_ bv763 11) _substvar_1278_) (= (_ bv763 11) _substvar_846_) false (= (_ bv763 11) _substvar_1463_)))
(check-sat)
(exit)
